* Signature: 0xaec8cb19de2904aa
NAME dummy
ROWS
 N  OBJ
 L  C1      
 L  C2      
 L  C3      
COLUMNS
    MARKER    'MARKER'                 'INTORG'
    x1        OBJ       4
    x1        C1        2
    x1        C3        1
    x2        OBJ       5
    x2        C2        1
    x2        C3        1
    MARKER    'MARKER'                 'INTEND'
    x3        OBJ       2
    x3        C1        3
    x3        C3        1
    x4        OBJ       3
    x4        C2        -1
    x4        C3        1
RHS
    RHS1      C1        6
    RHS1      C3        10
BOUNDS
 LI BND1      x1        0
 LI BND1      x2        0
ENDATA
